NAME : cgl_32.7128.tour
COMMENT : Length = 7128
COMMENT : Found by LKH-3 [Keld Helsgaun] Fri Nov  8 19:20:29 2024
TYPE : TOUR
DIMENSION : 32
TOUR_SECTION
11
17
13
21
22
23
24
25
26
27
4
2
30
31
32
1
29
3
28
6
5
15
8
16
19
20
14
9
12
10
7
18
-1
EOF
